homework/2/sat_in/bonus/13.wcnf
p wcnf 8 23 9
1 -1 0
1 -2 0
1 -3 0
1 -4 0
1 -5 0
1 -6 0
1 -7 0
1 -8 0
9 1 2 0
9 1 3 0
9 1 4 0
9 1 5 0
9 1 6 0
9 1 7 0
9 1 8 0
9 2 3 0
9 3 4 0
9 3 7 0
9 3 8 0
9 4 7 0
9 5 6 0
9 5 7 0
9 5 8 0
