homework/2/sat_in/task3/13.cnf
p cnf 32 296
1 2 3 4 5 6 7 8 0
-1 -2 0
-1 -3 0
-1 -4 0
-1 -5 0
-1 -6 0
-1 -7 0
-1 -8 0
-2 -3 0
-2 -4 0
-2 -5 0
-2 -6 0
-2 -7 0
-2 -8 0
-3 -4 0
-3 -5 0
-3 -6 0
-3 -7 0
-3 -8 0
-4 -5 0
-4 -6 0
-4 -7 0
-4 -8 0
-5 -6 0
-5 -7 0
-5 -8 0
-6 -7 0
-6 -8 0
-7 -8 0
9 10 11 12 13 14 15 16 0
-9 -10 0
-9 -11 0
-9 -12 0
-9 -13 0
-9 -14 0
-9 -15 0
-9 -16 0
-10 -11 0
-10 -12 0
-10 -13 0
-10 -14 0
-10 -15 0
-10 -16 0
-11 -12 0
-11 -13 0
-11 -14 0
-11 -15 0
-11 -16 0
-12 -13 0
-12 -14 0
-12 -15 0
-12 -16 0
-13 -14 0
-13 -15 0
-13 -16 0
-14 -15 0
-14 -16 0
-15 -16 0
17 18 19 20 21 22 23 24 0
-17 -18 0
-17 -19 0
-17 -20 0
-17 -21 0
-17 -22 0
-17 -23 0
-17 -24 0
-18 -19 0
-18 -20 0
-18 -21 0
-18 -22 0
-18 -23 0
-18 -24 0
-19 -20 0
-19 -21 0
-19 -22 0
-19 -23 0
-19 -24 0
-20 -21 0
-20 -22 0
-20 -23 0
-20 -24 0
-21 -22 0
-21 -23 0
-21 -24 0
-22 -23 0
-22 -24 0
-23 -24 0
25 26 27 28 29 30 31 32 0
-25 -26 0
-25 -27 0
-25 -28 0
-25 -29 0
-25 -30 0
-25 -31 0
-25 -32 0
-26 -27 0
-26 -28 0
-26 -29 0
-26 -30 0
-26 -31 0
-26 -32 0
-27 -28 0
-27 -29 0
-27 -30 0
-27 -31 0
-27 -32 0
-28 -29 0
-28 -30 0
-28 -31 0
-28 -32 0
-29 -30 0
-29 -31 0
-29 -32 0
-30 -31 0
-30 -32 0
-31 -32 0
-1 -9 0
-1 -17 0
-1 -25 0
-9 -17 0
-9 -25 0
-17 -25 0
-2 -10 0
-2 -18 0
-2 -26 0
-10 -18 0
-10 -26 0
-18 -26 0
-3 -11 0
-3 -19 0
-3 -27 0
-11 -19 0
-11 -27 0
-19 -27 0
-4 -12 0
-4 -20 0
-4 -28 0
-12 -20 0
-12 -28 0
-20 -28 0
-5 -13 0
-5 -21 0
-5 -29 0
-13 -21 0
-13 -29 0
-21 -29 0
-6 -14 0
-6 -22 0
-6 -30 0
-14 -22 0
-14 -30 0
-22 -30 0
-7 -15 0
-7 -23 0
-7 -31 0
-15 -23 0
-15 -31 0
-23 -31 0
-8 -16 0
-8 -24 0
-8 -32 0
-16 -24 0
-16 -32 0
-24 -32 0
-1 -10 0
-9 -2 0
-1 -18 0
-17 -2 0
-1 -26 0
-25 -2 0
-9 -18 0
-17 -10 0
-9 -26 0
-25 -10 0
-17 -26 0
-25 -18 0
-1 -11 0
-9 -3 0
-1 -19 0
-17 -3 0
-1 -27 0
-25 -3 0
-9 -19 0
-17 -11 0
-9 -27 0
-25 -11 0
-17 -27 0
-25 -19 0
-1 -12 0
-9 -4 0
-1 -20 0
-17 -4 0
-1 -28 0
-25 -4 0
-9 -20 0
-17 -12 0
-9 -28 0
-25 -12 0
-17 -28 0
-25 -20 0
-1 -13 0
-9 -5 0
-1 -21 0
-17 -5 0
-1 -29 0
-25 -5 0
-9 -21 0
-17 -13 0
-9 -29 0
-25 -13 0
-17 -29 0
-25 -21 0
-1 -14 0
-9 -6 0
-1 -22 0
-17 -6 0
-1 -30 0
-25 -6 0
-9 -22 0
-17 -14 0
-9 -30 0
-25 -14 0
-17 -30 0
-25 -22 0
-1 -15 0
-9 -7 0
-1 -23 0
-17 -7 0
-1 -31 0
-25 -7 0
-9 -23 0
-17 -15 0
-9 -31 0
-25 -15 0
-17 -31 0
-25 -23 0
-1 -16 0
-9 -8 0
-1 -24 0
-17 -8 0
-1 -32 0
-25 -8 0
-9 -24 0
-17 -16 0
-9 -32 0
-25 -16 0
-17 -32 0
-25 -24 0
-2 -11 0
-10 -3 0
-2 -19 0
-18 -3 0
-2 -27 0
-26 -3 0
-10 -19 0
-18 -11 0
-10 -27 0
-26 -11 0
-18 -27 0
-26 -19 0
-3 -12 0
-11 -4 0
-3 -20 0
-19 -4 0
-3 -28 0
-27 -4 0
-11 -20 0
-19 -12 0
-11 -28 0
-27 -12 0
-19 -28 0
-27 -20 0
-3 -15 0
-11 -7 0
-3 -23 0
-19 -7 0
-3 -31 0
-27 -7 0
-11 -23 0
-19 -15 0
-11 -31 0
-27 -15 0
-19 -31 0
-27 -23 0
-3 -16 0
-11 -8 0
-3 -24 0
-19 -8 0
-3 -32 0
-27 -8 0
-11 -24 0
-19 -16 0
-11 -32 0
-27 -16 0
-19 -32 0
-27 -24 0
-4 -15 0
-12 -7 0
-4 -23 0
-20 -7 0
-4 -31 0
-28 -7 0
-12 -23 0
-20 -15 0
-12 -31 0
-28 -15 0
-20 -31 0
-28 -23 0
-5 -14 0
-13 -6 0
-5 -22 0
-21 -6 0
-5 -30 0
-29 -6 0
-13 -22 0
-21 -14 0
-13 -30 0
-29 -14 0
-21 -30 0
-29 -22 0
-5 -15 0
-13 -7 0
-5 -23 0
-21 -7 0
-5 -31 0
-29 -7 0
-13 -23 0
-21 -15 0
-13 -31 0
-29 -15 0
-21 -31 0
-29 -23 0
-5 -16 0
-13 -8 0
-5 -24 0
-21 -8 0
-5 -32 0
-29 -8 0
-13 -24 0
-21 -16 0
-13 -32 0
-29 -16 0
-21 -32 0
-29 -24 0
